(set-info :smt-lib-version 2.6)
(set-logic ALL)
(declare-sort Nat$ 0)
(declare-fun to_int$ (Nat$) Int)
(set-info :source |Generator: Rodin SMT Plug-in|)
(set-info :license "https://creativecommons.org/licenses/by-nc/4.0/")
(set-info :category "industrial")
(set-info :status unsat)
(declare-sort D 0)
(declare-sort PZD 0)
(declare-sort PZZ 0)
(declare-fun Data (Int PZD) Bool)
(declare-fun MS (Int D PZD) Bool)
(declare-fun MS0 (Int Int PZZ) Bool)
(declare-fun idata (Int PZZ) Bool)
(declare-fun adr_r () Int)
(declare-fun adr_w () Int)
(declare-fun f () PZZ)
(declare-fun g () PZZ)
(declare-fun indx_r () Int)
(declare-fun indx_wp () Int)
(declare-fun latest () Int)
(declare-fun m () Int)
(declare-fun pair_w () Int)
(declare-fun r () Int)
(declare-fun rd () PZD)
(declare-fun reading () Int)
(declare-fun slot () PZZ)
(declare-fun u () Int)
(declare-fun w () Int)
(declare-fun wt () PZD)
(declare-fun wtp () PZD)
(declare-fun y () D)
(assert (forall ((x180 Int) (x181 D)) (exists ((X PZD)) (and (MS x180 x181 X) (forall ((y0 Int) (y1 D)) (=> (MS y0 y1 X) (and (= y0 x180) (= y1 x181))))))))
(assert (forall ((x182 Int) (x183 Int)) (exists ((X0 PZZ)) (and (MS0 x182 x183 X0) (forall ((y2 Int) (y3 Int)) (=> (MS0 y2 y3 X0) (and (= y2 x182) (= y3 x183))))))))
(assert (! (< 0 w) :named hyp1))
(assert (! (< 0 r) :named hyp2))
(assert (! (and (forall ((x Int) (x0 D)) (=> (MS x x0 wt) (and (<= 1 x) (<= x w)))) (forall ((x1 Int) (x2 D) (x3 D)) (=> (and (MS x1 x2 wt) (MS x1 x3 wt)) (= x2 x3))) (forall ((x4 Int)) (=> (and (<= 1 x4) (<= x4 w)) (exists ((x5 D)) (MS x4 x5 wt))))) :named hyp3))
(assert (! (and (forall ((x6 Int) (x7 D)) (=> (MS x6 x7 rd) (and (<= 1 x6) (<= x6 r)))) (forall ((x8 Int) (x9 D) (x10 D)) (=> (and (MS x8 x9 rd) (MS x8 x10 rd)) (= x9 x10))) (forall ((x11 Int)) (=> (and (<= 1 x11) (<= x11 r)) (exists ((x12 D)) (MS x11 x12 rd))))) :named hyp4))
(assert (! (and (forall ((x13 Int) (x14 Int)) (=> (MS0 x13 x14 f) (and (<= 1 x13) (<= x13 r) (<= 1 x14) (<= x14 w)))) (forall ((x15 Int) (x16 Int) (x17 Int)) (=> (and (MS0 x15 x16 f) (MS0 x15 x17 f)) (= x16 x17))) (forall ((x18 Int)) (=> (and (<= 1 x18) (<= x18 r)) (exists ((x19 Int)) (MS0 x18 x19 f))))) :named hyp5))
(assert (! (and (forall ((x20 Int) (x21 Int)) (=> (MS0 x20 x21 g) (and (<= 1 x20) (<= x20 r) (<= 1 x21) (<= x21 w)))) (forall ((x22 Int) (x23 Int) (x24 Int)) (=> (and (MS0 x22 x23 g) (MS0 x22 x24 g)) (= x23 x24))) (forall ((x25 Int)) (=> (and (<= 1 x25) (<= x25 r)) (exists ((x26 Int)) (MS0 x25 x26 g))))) :named hyp6))
(assert (! (forall ((x27 Int) (x28 D)) (= (MS x27 x28 rd) (exists ((x29 Int)) (and (MS0 x27 x29 f) (MS x29 x28 wt))))) :named hyp7))
(assert (! (forall ((i Int)) (=> (and (<= 1 i) (<= i r)) (forall ((x30 Int) (x31 Int)) (=> (and (MS0 i x31 f) (MS0 i x30 g)) (<= x31 x30))))) :named hyp8))
(assert (! (forall ((i0 Int)) (=> (and (<= 1 i0) (<= i0 (- r 1))) (forall ((x32 Int) (x33 Int)) (=> (and (MS0 i0 x33 g) (exists ((x34 Int)) (and (= x34 (+ i0 1)) (MS0 x34 x32 f)))) (<= x33 x32))))) :named hyp9))
(assert (! (or (= adr_w 1) (= adr_w 2) (= adr_w 3) (= adr_w 4) (= adr_w 5)) :named hyp10))
(assert (! (or (= adr_r 1) (= adr_r 2) (= adr_r 3)) :named hyp11))
(assert (! (MS0 r u g) :named hyp12))
(assert (! (exists ((x35 Int)) (MS0 r x35 g)) :named hyp13))
(assert (! (forall ((x36 Int) (x37 Int) (x38 Int)) (=> (and (MS0 x36 x37 g) (MS0 x36 x38 g)) (= x37 x38))) :named hyp14))
(assert (! (MS0 r m f) :named hyp15))
(assert (! (exists ((x39 Int)) (MS0 r x39 f)) :named hyp16))
(assert (! (forall ((x40 Int) (x41 Int) (x42 Int)) (=> (and (MS0 x40 x41 f) (MS0 x40 x42 f)) (= x41 x42))) :named hyp17))
(assert (! (and (forall ((x43 Int) (x44 D)) (=> (MS x43 x44 wtp) (< 0 x43))) (forall ((x45 Int) (x46 D) (x47 D)) (=> (and (MS x45 x46 wtp) (MS x45 x47 wtp)) (= x46 x47)))) :named hyp18))
(assert (! (=> (= adr_r 1) (MS r y rd)) :named hyp19))
(assert (! (=> (= adr_r 1) (and (exists ((x48 D)) (MS r x48 rd)) (forall ((x49 Int) (x50 D) (x51 D)) (=> (and (MS x49 x50 rd) (MS x49 x51 rd)) (= x50 x51))))) :named hyp20))
(assert (! (forall ((x52 Int) (x53 D)) (=> (MS x52 x53 wt) (MS x52 x53 wtp))) :named hyp21))
(assert (! (=> (or (= adr_w 2) (= adr_w 3) (= adr_w 4)) (forall ((x54 Int)) (= (exists ((x55 D)) (MS x54 x55 wtp)) (and (<= 1 x54) (<= x54 (+ w 1)))))) :named hyp22))
(assert (! (=> (= adr_w 5) (or (forall ((x56 Int)) (= (exists ((x57 D)) (MS x56 x57 wtp)) (and (<= 1 x56) (<= x56 w)))) (forall ((x58 Int)) (= (exists ((x59 D)) (MS x58 x59 wtp)) (and (<= 1 x58) (<= x58 (+ w 1))))))) :named hyp23))
(assert (! (or (= reading 0) (= reading 1)) :named hyp24))
(assert (! (or (= pair_w 0) (= pair_w 1)) :named hyp25))
(assert (! (or (= latest 0) (= latest 1)) :named hyp26))
(assert (! (or (= indx_r 0) (= indx_r 1)) :named hyp27))
(assert (! (or (= indx_wp 0) (= indx_wp 1)) :named hyp28))
(assert (! (and (forall ((x60 Int) (x61 Int)) (=> (MS0 x60 x61 slot) (and (or (= x60 0) (= x60 1)) (or (= x61 0) (= x61 1))))) (forall ((x62 Int) (x63 Int) (x64 Int)) (=> (and (MS0 x62 x63 slot) (MS0 x62 x64 slot)) (= x63 x64))) (forall ((x65 Int)) (=> (or (= x65 0) (= x65 1)) (exists ((x66 Int)) (MS0 x65 x66 slot))))) :named hyp29))
(assert (! (and (forall ((x67 Int) (x68 PZZ)) (=> (idata x67 x68) (and (or (= x67 0) (= x67 1)) (forall ((x69 Int) (x70 Int)) (=> (MS0 x69 x70 x68) (and (or (= x69 0) (= x69 1)) (exists ((x71 D)) (MS x70 x71 wtp))))) (forall ((x72 Int) (x73 Int) (x74 Int)) (=> (and (MS0 x72 x73 x68) (MS0 x72 x74 x68)) (= x73 x74))) (forall ((x75 Int)) (=> (or (= x75 0) (= x75 1)) (exists ((x76 Int)) (MS0 x75 x76 x68))))))) (forall ((x77 Int) (x78 PZZ) (x79 PZZ)) (=> (and (idata x77 x78) (idata x77 x79)) (forall ((x80 Int) (x81 Int)) (= (MS0 x80 x81 x78) (MS0 x80 x81 x79))))) (forall ((x82 Int)) (=> (or (= x82 0) (= x82 1)) (exists ((x83 PZZ)) (idata x82 x83))))) :named hyp30))
(assert (! (=> (= adr_r 2) (and (forall ((x84 Int)) (=> (exists ((x85 PZZ)) (and (idata reading x85) (exists ((x86 Int)) (and (MS0 reading x86 slot) (MS0 x86 x84 x85))))) (<= u x84))) (forall ((x87 Int)) (=> (exists ((x88 PZZ)) (and (idata reading x88) (exists ((x89 Int)) (and (MS0 reading x89 slot) (MS0 x89 x87 x88))))) (<= x87 w))))) :named hyp31))
(assert (! (=> (= adr_r 3) (exists ((x90 PZZ)) (and (idata reading x90) (MS0 indx_r m x90)))) :named hyp32))
(assert (! (exists ((x91 PZZ)) (and (idata latest x91) (exists ((x92 Int)) (and (MS0 latest x92 slot) (MS0 x92 w x91))))) :named hyp33))
(assert (! (exists ((x93 PZZ)) (idata latest x93)) :named hyp34))
(assert (! (forall ((x94 Int) (x95 PZZ) (x96 PZZ)) (=> (and (idata x94 x95) (idata x94 x96)) (forall ((x97 Int) (x98 Int)) (= (MS0 x97 x98 x95) (MS0 x97 x98 x96))))) :named hyp35))
(assert (! (exists ((x99 Int)) (MS0 latest x99 slot)) :named hyp36))
(assert (! (forall ((x100 Int) (x101 Int) (x102 Int)) (=> (and (MS0 x100 x101 slot) (MS0 x100 x102 slot)) (= x101 x102))) :named hyp37))
(assert (! (exists ((x103 Int) (x104 PZZ)) (and (idata latest x104) (exists ((x105 Int)) (and (MS0 latest x105 slot) (MS0 x105 x103 x104))))) :named hyp38))
(assert (! (forall ((x106 Int) (x107 Int) (x108 Int)) (=> (and (exists ((x109 PZZ)) (and (idata latest x109) (MS0 x106 x107 x109))) (exists ((x110 PZZ)) (and (idata latest x110) (MS0 x106 x108 x110)))) (= x107 x108))) :named hyp39))
(assert (! (=> (= reading pair_w) (= latest reading)) :named hyp40))
(assert (! (=> (or (= adr_w 1) (= adr_w 5)) (MS0 pair_w indx_wp slot)) :named hyp41))
(assert (! (=> (or (= adr_w 2) (= adr_w 3) (= adr_w 4)) (forall ((x111 Int)) (=> (MS0 pair_w x111 slot) (= indx_wp (- 1 x111))))) :named hyp42))
(assert (! (exists ((x112 PZZ)) (and (idata pair_w x112) (exists ((x113 Int)) (and (exists ((x114 D)) (MS x113 x114 wtp)) (forall ((x115 Int)) (=> (exists ((x116 D)) (MS x115 x116 wtp)) (<= x115 x113))) (MS0 indx_wp x113 x112))))) :named hyp43))
(assert (! (exists ((x117 PZZ)) (idata pair_w x117)) :named hyp44))
(assert (! (exists ((x118 Int) (x119 PZZ)) (and (idata pair_w x119) (MS0 indx_wp x118 x119))) :named hyp45))
(assert (! (forall ((x120 Int) (x121 Int) (x122 Int)) (=> (and (exists ((x123 PZZ)) (and (idata pair_w x123) (MS0 x120 x121 x123))) (exists ((x124 PZZ)) (and (idata pair_w x124) (MS0 x120 x122 x124)))) (= x121 x122))) :named hyp46))
(assert (! (exists ((b Int)) (forall ((x125 Int)) (=> (exists ((x126 D)) (MS x125 x126 wtp)) (<= x125 b)))) :named hyp47))
(assert (! (not (= reading (- 1 reading))) :named hyp48))
(assert (! (not (exists ((x127 Int) (x128 Int)) (and (= x127 (- 1 reading)) (forall ((x129 Int)) (=> (exists ((x130 Int)) (and (= x130 (- 1 reading)) (MS0 x130 x129 slot))) (= x128 (- 1 x129)))) (MS0 x127 x128 slot)))) :named hyp49))
(assert (! (exists ((x131 Int) (x132 Int)) (and (= x132 (- 1 reading)) (MS0 x132 x131 slot))) :named hyp50))
(assert (! (and (forall ((x133 Int) (x134 PZD)) (=> (Data x133 x134) (and (or (= x133 0) (= x133 1)) (forall ((x135 Int) (x136 D)) (=> (MS x135 x136 x134) (or (= x135 0) (= x135 1)))) (forall ((x137 Int) (x138 D) (x139 D)) (=> (and (MS x137 x138 x134) (MS x137 x139 x134)) (= x138 x139))) (forall ((x140 Int)) (=> (or (= x140 0) (= x140 1)) (exists ((x141 D)) (MS x140 x141 x134))))))) (forall ((x142 Int) (x143 PZD) (x144 PZD)) (=> (and (Data x142 x143) (Data x142 x144)) (forall ((x145 Int) (x146 D)) (= (MS x145 x146 x143) (MS x145 x146 x144))))) (forall ((x147 Int)) (=> (or (= x147 0) (= x147 1)) (exists ((x148 PZD)) (Data x147 x148))))) :named hyp51))
(assert (! (forall ((x149 Int) (z Int)) (=> (and (or (= x149 0) (= x149 1)) (or (= z 0) (= z 1))) (exists ((x150 Int) (x151 D)) (and (exists ((x152 PZZ)) (and (idata x149 x152) (MS0 z x150 x152))) (exists ((x153 PZD)) (and (Data x149 x153) (MS z x151 x153))) (MS x150 x151 wtp))))) :named hyp52))
(assert (! (= adr_w 1) :named hyp53))
(assert (! (not (forall ((x154 Int) (x155 D)) (not (MS x154 x155 wtp)))) :named hyp54))
(assert (! (forall ((x156 Int)) (= (exists ((x157 D)) (MS x156 x157 wtp)) (and (<= 1 x156) (<= x156 w)))) :named hyp55))
(assert (! (=> (= adr_r 2) (and (exists ((x158 PZZ)) (idata reading x158)) (exists ((x159 Int)) (MS0 reading x159 slot)) (exists ((x160 Int) (x161 PZZ)) (and (idata reading x161) (exists ((x162 Int)) (and (MS0 reading x162 slot) (MS0 x162 x160 x161))))) (forall ((x163 Int) (x164 Int) (x165 Int)) (=> (and (exists ((x166 PZZ)) (and (idata reading x166) (MS0 x163 x164 x166))) (exists ((x167 PZZ)) (and (idata reading x167) (MS0 x163 x165 x167)))) (= x164 x165))))) :named hyp56))
(assert (! (=> (= adr_r 3) (and (exists ((x168 PZZ)) (idata reading x168)) (exists ((x169 Int) (x170 PZZ)) (and (idata reading x170) (MS0 indx_r x169 x170))) (forall ((x171 Int) (x172 Int) (x173 Int)) (=> (and (exists ((x174 PZZ)) (and (idata reading x174) (MS0 x171 x172 x174))) (exists ((x175 PZZ)) (and (idata reading x175) (MS0 x171 x173 x175)))) (= x172 x173))))) :named hyp57))
(assert (! (= pair_w latest) :named hyp58))
(assert (! (=> (or (= adr_w 1) (= adr_w 5)) (exists ((x176 Int)) (MS0 pair_w x176 slot))) :named hyp59))
(assert (! (=> (or (= adr_w 2) (= adr_w 3) (= adr_w 4)) (exists ((x177 Int)) (MS0 pair_w x177 slot))) :named hyp60))
(assert (! (not (exists ((x178 PZD) (x179 Int)) (and (= x179 (- 1 reading)) (Data x179 x178)))) :named goal))
(check-sat)
(exit)
